CMPL model generation - running

CMPL version: 1.11.0
Authors: Thomas Schleiff, Mike Steglich
Distributed under the GPLv3 

create model instance ...
write model instance ...
CMPL model generation - finished

Solver - running


Welcome to IBM(R) ILOG(R) CPLEX(R) Interactive Optimizer 12.7.1.0
  with Simplex, Mixed Integer & Barrier Optimizers
5725-A06 5725-A29 5724-Y48 5724-Y49 5724-Y54 5724-Y55 5655-Y21
Copyright IBM Corp. 1988, 2017.  All Rights Reserved.

Type 'help' for a list of available commands.
Type 'help' followed by a command name for more
information on commands.

CPLEX> Specified objective sense: MINIMIZE
Selected objective  name:  line[1]
Selected RHS        name:  RHS
Selected bound      name:  BOUND
Problem '/tmp/cmpl.T27373.mps' read.
Read time = 0.14 sec. (20.23 ticks)
CPLEX> New value for mixed integer optimality gap tolerance: 0.007
CPLEX> CPLEX> CPXPARAM_Read_APIEncoding                        "UTF-8"
CPXPARAM_MIP_Tolerances_MIPGap                   0.0070000000000000001
Tried aggregator 3 times.
MIP Presolve eliminated 81390 rows and 53309 columns.
MIP Presolve modified 8345 coefficients.
Aggregator did 1753 substitutions.
Reduced MIP has 7084 rows, 5158 columns, and 21928 nonzeros.
Reduced MIP has 3535 binaries, 0 generals, 0 SOSs, and 0 indicators.
Presolve time = 0.13 sec. (105.47 ticks)
Found incumbent of value 4737.217529 after 0.15 sec. (123.77 ticks)
Probing fixed 0 vars, tightened 271 bounds.
Probing time = 0.04 sec. (15.34 ticks)
Tried aggregator 1 time.
MIP Presolve modified 733 coefficients.
Reduced MIP has 7084 rows, 5158 columns, and 21928 nonzeros.
Reduced MIP has 3745 binaries, 0 generals, 0 SOSs, and 0 indicators.
Presolve time = 0.02 sec. (16.62 ticks)
Probing time = 0.01 sec. (3.03 ticks)
Clique table members: 3015.
MIP emphasis: balance optimality and feasibility.
MIP search method: dynamic search.
Parallel mode: none, using 1 thread.
Root relaxation solution time = 0.29 sec. (215.03 ticks)

        Nodes                                         Cuts/
   Node  Left     Objective  IInf  Best Integer    Best Bound    ItCnt     Gap

*     0+    0                         4737.2175     -440.3500           109.30%
      0     0     2143.0900   443     4737.2175     2143.0900     6617   54.76%
*     0+    0                         2176.2380     2143.0900             1.52%
      0     0     2144.5227   435     2176.2380     Cuts: 335     7681    1.46%
*     0+    0                         2173.4144     2144.5227             1.33%
      0     0     2145.2475   440     2173.4144     Cuts: 438     9096    1.30%
*     0+    0                         2171.4121     2145.2475             1.20%
      0     0     2146.0755   428     2171.4121     Cuts: 435    10392    1.17%
*     0+    0                         2170.0100     2146.0755             1.10%
*     0+    0                         2169.8951     2146.0755             1.10%
      0     0     2146.7207   427     2169.8951     Cuts: 419    11315    1.07%
*     0+    0                         2168.2751     2146.7207             0.99%
      0     0     2147.4869   431     2168.2751     Cuts: 411    12081    0.96%
*     0+    0                         2167.7026     2147.4869             0.93%
      0     0     2148.1438   425     2167.7026     Cuts: 376    12722    0.90%
*     0+    0                         2167.6973     2148.1438             0.90%
*     0+    0                         2167.6334     2148.1438             0.90%
*     0+    0                         2166.9162     2148.1438             0.87%
      0     0     2148.5114   438     2166.9162     Cuts: 325    13208    0.85%
      0     0     2148.9216   427     2166.9162     Cuts: 319    13662    0.83%
      0     0     2149.2134   436     2166.9162     Cuts: 284    14059    0.82%
      0     0     2149.5865   441     2166.9162     Cuts: 248    14491    0.80%
      0     0     2149.7908   441     2166.9162     Cuts: 186    14805    0.79%
      0     0     2149.8906   452     2166.9162     Cuts: 144    15030    0.79%
*     0+    0                         2163.3218     2149.8906             0.62%

Flow cuts applied:  697
Mixed integer rounding cuts applied:  595
Zero-half cuts applied:  2
Lift and project cuts applied:  2
Gomory fractional cuts applied:  1

Root node processing (before b&c):
  Real time             =    4.44 sec. (3290.98 ticks)
Sequential b&c:
  Real time             =    0.00 sec. (0.00 ticks)
                          ------------
Total (root+branch&cut) =    4.44 sec. (3290.98 ticks)

Solution pool: 12 solutions saved.

MIP - Integer optimal, tolerance (0.007/1e-06):  Objective =  2.1633218150e+03
Current MIP best bound =  2.1498905546e+03 (gap = 13.4313, 0.62%)
Solution time =    4.44 sec.  Iterations = 15030  Nodes = 0 (1)
Deterministic time = 3291.15 ticks  (741.87 ticks/sec)

CPLEX> Incumbent solution written to file '/tmp/cmpl.T27373.gsol'.
CPLEX> 
CMPL: Time used for model generation: 17 seconds
CMPL: Time used for solving the model: 6 seconds


Solution written to ASCII file: /media/sf_ltf/results/output_generated/2016-10-03-5/fair-nonlinear.sol

Solver - finished
